\ Model mip_internet_graph_fmin
\ LP format - for model browsing. Use MPS format to capture full model detail.
Minimize
  x[0] + x[1] + x[2] + x[3] + x[4] + x[5] + x[6] + x[7] + x[8] + x[9]
Subject To
 R0: x[6] = 1
 R1: x[0] - x[3] + x[5] >= 0
 R2: x[0] + x[5] - x[6] >= 0
 R3: x[0] - x[3] + x[7] >= 0
 R4: x[0] - x[5] + x[7] >= 0
 R5: x[0] - x[6] + x[7] >= 0
 R6: x[0] - x[1] + x[8] >= 0
 R7: x[0] - x[2] + x[9] >= 0
 R8: x[1] - x[3] + x[5] >= 0
 R9: - x[0] + x[1] + x[6] >= 0
 R10: x[1] - x[3] + x[7] >= 0
 R11: x[1] - x[5] + x[7] >= 0
 R12: x[1] - x[2] + x[9] >= 0
 R13: x[2] - x[3] + x[5] >= 0
 R14: - x[0] + x[2] + x[6] >= 0
 R15: x[2] - x[3] + x[7] >= 0
 R16: x[2] - x[5] + x[7] >= 0
 R17: - x[1] + x[2] + x[8] >= 0
 R18: - x[0] + x[3] + x[6] >= 0
 R19: x[3] - x[5] + x[6] >= 0
 R20: x[3] - x[5] + x[7] >= 0
 R21: - x[1] + x[3] + x[8] >= 0
 R22: - x[2] + x[3] + x[9] >= 0
 R23: - x[3] + x[4] + x[5] >= 0
 R24: - x[0] + x[4] + x[6] >= 0
 R25: - x[3] + x[4] + x[7] >= 0
 R26: x[4] - x[5] + x[7] >= 0
 R27: - x[1] + x[4] + x[8] >= 0
 R28: - x[2] + x[4] + x[9] >= 0
 R29: - x[1] + x[5] + x[8] >= 0
 R30: - x[3] + x[5] + x[8] >= 0
 R31: - x[2] + x[5] + x[9] >= 0
 R32: - x[3] + x[5] + x[9] >= 0
 R33: - x[5] + x[6] + x[7] >= 0
 R34: - x[0] + x[6] + x[8] >= 0
 R35: - x[1] + x[6] + x[8] >= 0
 R36: - x[0] + x[6] + x[9] >= 0
 R37: - x[2] + x[6] + x[9] >= 0
 R38: - x[1] + x[7] + x[8] >= 0
 R39: - x[3] + x[7] + x[8] >= 0
 R40: - x[5] + x[7] + x[8] >= 0
 R41: - x[2] + x[7] + x[9] >= 0
 R42: - x[3] + x[7] + x[9] >= 0
 R43: - x[5] + x[7] + x[9] >= 0
 R44: - x[1] + x[8] + x[9] >= 0
 R45: - x[2] + x[8] + x[9] >= 0
Bounds
Binaries
 x[0] x[1] x[2] x[3] x[4] x[5] x[6] x[7] x[8] x[9]
End
